
  22   10
  10   10   10   10   10   10   10   10   10   10

   0   0   0   0   0   0   0   0   0   0   0   1 2 
   6   0   0  10   0   0   0   0   0   0   0   1 3 
   2   0   0   0   0   0  10   0   0   0   0   1 4 
   5   0   0   0  10   0   0   0   0   0   0   1 5 
   3   0   0   0   0   0  10   0   0   0   0   1 6 
   3  10   0   0   0   0   0   0   0   0   0   2 11 7 
   3   0   0   0   0   0  10   0   0   0   0   1 8 
   4   0   0   0   0   0   0   0   0  10   0   1 9 
   1   0   0   0   0   0   0   0   0   0  10   1 10 
   3   0   0   0   0   0   0   0  10   0   0   2 17 12 
   3   0   0  10   0   0   0   0   0   0   0   2 17 12 
   4   0  10   0   0   0   0   0   0   0   0   1 13 
   3   0   0   0   0   0  10   0   0   0   0   1 14 
   2   0  10   0   0   0   0   0   0   0   0   1 15 
   9   0   0  10   0   0   0   0   0   0   0   1 16 
   2   0   0   0   0   0   0   0  10   0   0   1 18 
   6   0  10   0   0   0   0   0   0   0   0   1 18 
  10  10   0   0   0   0   0   0   0   0   0   1 19 
   5   0   0  10   0   0   0   0   0   0   0   1 20 
   5   0   0   0   0   0   0  10   0   0   0   1 21 
   2   0   0   0   0  10   0   0   0   0   0   1 22
   0   0   0   0   0   0   0   0   0   0   0   0 
